p cnf 22 31
-1 20 0 
-2 -3 -1 21 0 
-3 -1 22 0 
-4 -1 21 0 
-5 -6 -7 9 -8 17 20 0 
-9 7 -10 20 0 
-11 21 0 
-11 22 0 
-1 -12 22 0 
-1 -12 20 0 
-13 -9 7 22 0 
-14 20 0 
-9 7 22 0 
-1 21 0 
-4 -1 -15 20 0 
-9 7 21 0 
-1 22 0 
-16 21 0 
-4 -1 20 0 
-17 8 20 0 
-6 -17 8 22 0 
-17 8 21 0 
-17 8 22 0 
-18 -17 8 21 0 
-16 22 0 
-13 -1 21 0 
-18 -9 7 20 0 
-19 20 0 
-9 7 20 0 
-2 -1 22 0 
-4 -1 22 0 
